Route #1: 38 85 58 70 72 86 
Route #2: 11 20 74 30 62 52 
Route #3: 81 87 93 90 7 9 
Route #4: 15 61 91 33 12 28 39 
Route #5: 60 71 34 75 79 67 26 
Route #6: 68 99 51 92 16 6 24 
Route #7: 25 50 66 27 57 1 18 
Route #8: 56 76 43 73 84 10 103 
Route #9: 23 49 41 47 83 36 14 105 
Route #10: 5 19 100 13 21 40 59 8 
Route #11: 96 42 44 102 2 45 82 98 64 
Route #12: 4 46 65 89 29 37 53 77 78 88 
Route #13: 48 97 104 69 55 22 31 95 32 3 17 
Route #14: 35 54 63 80 94 101 
cost 40003
